language ESSENCE' 1.0

letting n_courses be 149
letting n_periods be 21
letting prerequisite_RelationAsSet_Explicit_1 be
        [1, 1, 1, 1, 1, 2, 2, 2, 2, 3, 3, 3, 3, 3, 4, 4, 5, 5, 5, 5, 5, 6, 7, 7, 7, 7, 7, 8, 8, 8, 8, 9, 9, 10, 10, 10,
         11, 11, 11, 12, 12, 12, 12, 13, 13, 13, 13, 13, 13, 14, 14, 14, 14, 14, 15, 15, 17, 17, 17, 17, 18, 19, 19, 20,
         20, 21, 21, 21, 21, 22, 22, 22, 23, 23, 23, 23, 23, 24, 24, 24, 24, 25, 26, 26, 27, 28, 28, 28, 29, 29, 30, 30,
         31, 32, 32, 32, 34, 34, 37, 39, 39, 41, 41, 41, 41, 41, 42, 42, 42, 43, 44, 45, 46, 46, 46, 47, 49, 50, 50, 51,
         51, 52, 52, 53, 53, 54, 56, 57, 57, 58, 58, 59, 59, 61, 62, 62, 63, 64, 64, 64, 64, 67, 67, 68, 68, 71, 72, 72,
         74, 74, 75, 77, 78, 78, 79, 80, 82, 83, 85, 85, 86, 87, 88, 88, 89, 90, 91, 92, 92, 92, 92, 93, 93, 94, 95, 96,
         97, 97, 98, 98, 100;
             int(1..181)]
letting prerequisite_RelationAsSet_Explicit_2 be
        [50, 61, 65, 96, 99, 42, 75, 81, 86, 34, 36, 45, 67, 70, 37, 68, 41, 64, 81, 87, 89, 88, 40, 42, 50, 79, 93, 57,
         66, 74, 86, 91, 95, 33, 49, 78, 60, 62, 63, 35, 49, 70, 71, 38, 39, 44, 53, 77, 90, 32, 34, 47, 54, 63, 56, 59,
         43, 58, 92, 94, 59, 54, 55, 67, 98, 35, 71, 73, 85, 51, 52, 75, 48, 54, 64, 72, 76, 46, 69, 80, 87, 53, 37, 84,
         97, 50, 79, 84, 83, 100, 78, 84, 82, 130, 136, 146, 106, 139, 113, 106, 122, 108, 113, 122, 138, 143, 116, 127,
         129, 126, 119, 110, 105, 143, 144, 131, 113, 136, 149, 101, 129, 109, 148, 118, 131, 142, 104, 123, 130, 114,
         123, 133, 135, 135, 104, 137, 107, 107, 114, 131, 134, 102, 149, 141, 142, 113, 111, 126, 120, 126, 112, 145,
         115, 128, 121, 109, 147, 116, 111, 124, 108, 117, 103, 125, 126, 116, 110, 101, 103, 109, 121, 101, 115, 126,
         132, 148, 116, 131, 105, 140, 137;
             int(1..181)]
letting course_load_Function1D be
        [6, 6, 6, 5, 7, 6, 5, 5, 6, 5, 5, 6, 5, 5, 5, 5, 5, 6, 7, 6, 6, 5, 6, 7, 7, 5, 5, 5, 6, 7, 7, 6, 7, 5, 6, 6, 6,
         6, 6, 5, 7, 5, 6, 5, 7, 6, 6, 5, 7, 5, 6, 5, 6, 5, 6, 7, 5, 7, 6, 5, 6, 5, 7, 7, 5, 7, 5, 7, 5, 6, 5, 5, 5, 5,
         7, 6, 5, 5, 5, 5, 5, 6, 5, 5, 5, 6, 5, 5, 6, 6, 6, 6, 5, 6, 6, 5, 5, 7, 7, 7, 6, 7, 5, 5, 5, 6, 5, 7, 6, 6, 6,
         6, 6, 7, 5, 6, 5, 5, 5, 6, 5, 6, 6, 6, 5, 5, 6, 5, 5, 6, 5, 5, 5, 5, 6, 5, 6, 6, 5, 7, 6, 6, 6, 5, 5, 6, 5, 7,
         6;  int(1..149)]
letting load_per_period_ub be 42
letting load_per_period_lb be 5
letting courses_per_period_ub be 9
letting courses_per_period_lb be 3
letting fin1 be 181
letting fin2 be 149
letting fin3 be 7
